33D32945 STP File, STP Format Version 1.0

SECTION Comment
Name 	 "n200_l2.0_rand-graph"
Creator 	"Indaco Biazzo"
Remark
END

SECTION Graph
Nodes 200
Edges 1605
E 1 2 2.000000
E 1 69 2.000000
E 1 104 2.000000
E 1 138 1.000000
E 1 11 4.000000
E 1 88 4.000000
E 1 15 2.000000
E 1 126 1.000000
E 1 177 2.000000
E 1 157 1.000000
E 1 20 1.000000
E 1 79 4.000000
E 1 139 4.000000
E 1 24 1.000000
E 1 136 4.000000
E 1 43 2.000000
E 2 35 2.000000
E 2 172 1.000000
E 2 179 4.000000
E 2 134 2.000000
E 2 39 4.000000
E 2 104 4.000000
E 2 108 1.000000
E 2 45 4.000000
E 2 163 4.000000
E 2 176 4.000000
E 2 177 2.000000
E 2 19 1.000000
E 2 117 1.000000
E 2 95 1.000000
E 2 183 4.000000
E 2 56 1.000000
E 2 187 2.000000
E 2 93 4.000000
E 2 184 1.000000
E 2 63 2.000000
E 3 124 2.000000
E 3 166 1.000000
E 3 39 2.000000
E 3 106 4.000000
E 3 173 1.000000
E 3 175 1.000000
E 3 80 2.000000
E 3 81 1.000000
E 3 83 2.000000
E 3 164 4.000000
E 3 119 2.000000
E 3 120 2.000000
E 3 185 4.000000
E 3 170 1.000000
E 3 155 2.000000
E 3 112 2.000000
E 3 157 2.000000
E 3 94 1.000000
E 4 130 4.000000
E 4 82 1.000000
E 4 105 1.000000
E 4 10 4.000000
E 4 141 4.000000
E 4 78 2.000000
E 4 15 2.000000
E 4 49 1.000000
E 4 18 1.000000
E 4 148 2.000000
E 4 21 1.000000
E 4 151 1.000000
E 4 88 2.000000
E 4 122 1.000000
E 4 91 2.000000
E 4 32 4.000000
E 5 33 4.000000
E 5 41 2.000000
E 5 10 2.000000
E 5 13 2.000000
E 5 45 1.000000
E 5 51 4.000000
E 5 181 2.000000
E 5 150 1.000000
E 5 58 1.000000
E 5 126 2.000000
E 6 33 2.000000
E 6 195 2.000000
E 6 68 4.000000
E 6 132 4.000000
E 6 102 1.000000
E 6 196 2.000000
E 6 72 4.000000
E 6 73 2.000000
E 6 169 2.000000
E 6 136 1.000000
E 6 146 2.000000
E 6 51 2.000000
E 6 116 2.000000
E 6 149 2.000000
E 6 170 2.000000
E 6 121 2.000000
E 6 133 2.000000
E 6 92 1.000000
E 6 126 2.000000
E 7 195 4.000000
E 7 28 2.000000
E 7 102 1.000000
E 7 135 1.000000
E 7 64 2.000000
E 7 108 1.000000
E 7 143 1.000000
E 7 147 1.000000
E 7 60 2.000000
E 7 189 4.000000
E 7 158 2.000000
E 7 70 2.000000
E 8 148 2.000000
E 8 135 2.000000
E 8 103 2.000000
E 8 200 4.000000
E 8 142 4.000000
E 8 143 4.000000
E 8 144 2.000000
E 8 178 2.000000
E 8 116 4.000000
E 8 85 1.000000
E 8 150 1.000000
E 8 25 2.000000
E 8 155 4.000000
E 8 124 2.000000
E 8 93 2.000000
E 8 187 4.000000
E 9 65 2.000000
E 9 161 4.000000
E 9 195 4.000000
E 9 194 2.000000
E 9 170 4.000000
E 9 184 4.000000
E 9 45 4.000000
E 9 14 1.000000
E 9 19 4.000000
E 9 84 4.000000
E 9 183 4.000000
E 9 152 4.000000
E 9 186 1.000000
E 9 27 4.000000
E 9 188 1.000000
E 10 162 2.000000
E 10 99 4.000000
E 10 36 1.000000
E 10 102 2.000000
E 10 178 1.000000
E 10 41 1.000000
E 10 171 1.000000
E 10 141 1.000000
E 10 46 4.000000
E 10 142 4.000000
E 10 105 2.000000
E 10 148 4.000000
E 10 30 4.000000
E 10 32 2.000000
E 11 37 2.000000
E 11 71 4.000000
E 11 16 2.000000
E 11 82 1.000000
E 11 116 2.000000
E 11 24 2.000000
E 11 31 2.000000
E 12 82 1.000000
E 12 106 2.000000
E 12 17 4.000000
E 12 18 4.000000
E 12 83 2.000000
E 12 52 1.000000
E 12 149 2.000000
E 12 160 1.000000
E 13 65 1.000000
E 13 130 1.000000
E 13 38 2.000000
E 13 103 4.000000
E 13 172 2.000000
E 13 141 1.000000
E 13 14 4.000000
E 13 178 2.000000
E 13 20 2.000000
E 13 86 1.000000
E 13 69 2.000000
E 13 27 2.000000
E 13 93 4.000000
E 13 126 2.000000
E 14 129 2.000000
E 14 77 2.000000
E 14 43 2.000000
E 14 140 4.000000
E 14 46 4.000000
E 14 16 4.000000
E 14 113 2.000000
E 14 146 4.000000
E 14 117 4.000000
E 14 183 4.000000
E 14 25 4.000000
E 14 157 1.000000
E 14 64 4.000000
E 15 135 4.000000
E 15 16 1.000000
E 15 159 1.000000
E 15 200 1.000000
E 15 175 4.000000
E 15 50 2.000000
E 15 52 1.000000
E 15 31 1.000000
E 15 57 1.000000
E 15 58 1.000000
E 15 59 4.000000
E 15 62 4.000000
E 15 182 1.000000
E 15 66 4.000000
E 15 198 4.000000
E 15 72 1.000000
E 15 79 2.000000
E 15 80 2.000000
E 15 84 4.000000
E 15 95 4.000000
E 15 107 1.000000
E 15 109 1.000000
E 15 122 4.000000
E 16 98 2.000000
E 16 37 2.000000
E 16 42 4.000000
E 16 177 4.000000
E 16 48 4.000000
E 16 113 1.000000
E 16 18 1.000000
E 16 54 4.000000
E 16 23 1.000000
E 16 170 2.000000
E 16 25 4.000000
E 16 59 2.000000
E 16 156 2.000000
E 16 30 1.000000
E 16 127 1.000000
E 17 139 2.000000
E 17 145 4.000000
E 17 154 4.000000
E 17 156 1.000000
E 17 31 4.000000
E 17 37 2.000000
E 17 182 2.000000
E 17 186 2.000000
E 17 65 2.000000
E 17 196 2.000000
E 17 197 1.000000
E 17 71 4.000000
E 17 77 4.000000
E 17 78 2.000000
E 17 80 4.000000
E 17 85 4.000000
E 17 88 1.000000
E 17 91 4.000000
E 17 92 4.000000
E 17 107 2.000000
E 17 116 2.000000
E 17 120 2.000000
E 18 36 1.000000
E 18 198 2.000000
E 18 167 1.000000
E 18 168 4.000000
E 18 106 1.000000
E 18 83 2.000000
E 18 114 2.000000
E 18 19 4.000000
E 18 149 4.000000
E 18 174 2.000000
E 18 196 2.000000
E 18 96 1.000000
E 19 136 1.000000
E 19 141 1.000000
E 19 147 4.000000
E 19 148 1.000000
E 19 152 1.000000
E 19 153 2.000000
E 19 28 2.000000
E 19 158 1.000000
E 19 32 4.000000
E 19 34 1.000000
E 19 172 2.000000
E 19 46 2.000000
E 19 56 2.000000
E 19 59 1.000000
E 19 189 1.000000
E 19 192 2.000000
E 19 65 4.000000
E 19 66 2.000000
E 19 71 4.000000
E 19 85 4.000000
E 19 114 1.000000
E 19 128 4.000000
E 20 131 2.000000
E 20 28 2.000000
E 20 147 2.000000
E 20 122 4.000000
E 20 91 2.000000
E 20 60 1.000000
E 21 33 4.000000
E 21 104 1.000000
E 21 139 1.000000
E 21 77 4.000000
E 21 111 1.000000
E 21 80 1.000000
E 21 81 2.000000
E 21 51 4.000000
E 21 164 2.000000
E 21 89 4.000000
E 21 26 2.000000
E 21 123 2.000000
E 22 34 2.000000
E 22 70 1.000000
E 22 166 1.000000
E 22 82 4.000000
E 22 130 4.000000
E 22 139 1.000000
E 22 140 2.000000
E 22 176 2.000000
E 22 114 2.000000
E 22 86 2.000000
E 22 58 1.000000
E 22 123 2.000000
E 22 128 4.000000
E 22 118 1.000000
E 23 71 4.000000
E 23 72 2.000000
E 23 170 1.000000
E 23 76 4.000000
E 23 173 1.000000
E 23 142 4.000000
E 23 80 2.000000
E 23 174 4.000000
E 23 90 4.000000
E 23 187 2.000000
E 23 32 2.000000
E 24 65 4.000000
E 24 36 1.000000
E 24 69 1.000000
E 24 167 1.000000
E 24 148 4.000000
E 24 98 1.000000
E 24 74 1.000000
E 24 200 2.000000
E 24 111 2.000000
E 24 144 2.000000
E 24 178 2.000000
E 24 68 1.000000
E 24 143 1.000000
E 24 119 1.000000
E 24 88 1.000000
E 24 165 4.000000
E 24 59 4.000000
E 24 95 1.000000
E 24 196 2.000000
E 25 65 1.000000
E 25 66 2.000000
E 25 100 4.000000
E 25 37 2.000000
E 25 39 4.000000
E 25 97 2.000000
E 25 108 1.000000
E 25 141 2.000000
E 25 79 2.000000
E 25 51 2.000000
E 25 85 1.000000
E 25 143 2.000000
E 25 120 2.000000
E 25 91 4.000000
E 26 177 2.000000
E 26 101 1.000000
E 26 166 1.000000
E 26 170 1.000000
E 26 107 2.000000
E 26 152 1.000000
E 26 173 1.000000
E 26 158 2.000000
E 26 145 1.000000
E 26 86 1.000000
E 26 120 1.000000
E 26 185 4.000000
E 26 122 4.000000
E 26 126 4.000000
E 27 164 2.000000
E 27 189 2.000000
E 27 80 4.000000
E 27 81 2.000000
E 27 158 2.000000
E 27 51 4.000000
E 27 54 2.000000
E 27 87 2.000000
E 27 120 2.000000
E 27 190 2.000000
E 27 61 1.000000
E 27 62 1.000000
E 27 182 4.000000
E 28 143 2.000000
E 28 147 4.000000
E 28 150 2.000000
E 28 159 4.000000
E 28 34 1.000000
E 28 164 1.000000
E 28 38 4.000000
E 28 43 1.000000
E 28 180 2.000000
E 28 181 1.000000
E 28 185 2.000000
E 28 61 2.000000
E 28 190 4.000000
E 28 66 4.000000
E 28 196 4.000000
E 28 197 2.000000
E 28 82 4.000000
E 28 88 1.000000
E 28 97 2.000000
E 29 129 2.000000
E 29 99 2.000000
E 29 101 1.000000
E 29 39 1.000000
E 29 41 2.000000
E 29 174 2.000000
E 29 47 2.000000
E 29 51 4.000000
E 29 85 2.000000
E 29 111 1.000000
E 29 119 2.000000
E 29 90 1.000000
E 29 189 4.000000
E 30 129 1.000000
E 30 166 2.000000
E 30 164 4.000000
E 30 70 4.000000
E 30 108 2.000000
E 30 77 2.000000
E 30 192 4.000000
E 30 109 4.000000
E 30 84 4.000000
E 30 112 4.000000
E 30 189 1.000000
E 30 64 4.000000
E 31 164 4.000000
E 31 37 2.000000
E 31 199 2.000000
E 31 39 4.000000
E 31 72 4.000000
E 31 146 4.000000
E 31 74 1.000000
E 31 108 1.000000
E 31 45 2.000000
E 31 147 2.000000
E 31 126 1.000000
E 31 82 4.000000
E 31 83 4.000000
E 31 79 2.000000
E 31 119 4.000000
E 31 75 1.000000
E 31 182 4.000000
E 32 130 1.000000
E 32 134 1.000000
E 32 137 2.000000
E 32 141 4.000000
E 32 157 2.000000
E 32 170 4.000000
E 32 66 4.000000
E 32 67 2.000000
E 32 68 4.000000
E 32 73 4.000000
E 32 75 2.000000
E 32 78 4.000000
E 32 85 4.000000
E 32 91 2.000000
E 32 94 1.000000
E 32 100 2.000000
E 32 103 2.000000
E 32 109 4.000000
E 33 117 1.000000
E 33 164 1.000000
E 33 194 1.000000
E 33 73 1.000000
E 33 106 2.000000
E 33 46 1.000000
E 33 80 2.000000
E 33 114 2.000000
E 33 147 1.000000
E 33 148 2.000000
E 33 101 2.000000
E 33 159 1.000000
E 33 192 4.000000
E 34 193 2.000000
E 34 66 4.000000
E 34 163 4.000000
E 34 172 1.000000
E 34 133 4.000000
E 34 198 2.000000
E 34 170 4.000000
E 34 128 1.000000
E 34 47 4.000000
E 34 81 2.000000
E 34 53 1.000000
E 34 189 2.000000
E 34 190 4.000000
E 34 118 1.000000
E 35 150 2.000000
E 35 104 1.000000
E 35 130 1.000000
E 35 173 4.000000
E 35 108 2.000000
E 35 160 2.000000
E 35 79 4.000000
E 35 118 1.000000
E 35 119 4.000000
E 35 154 4.000000
E 35 59 4.000000
E 35 156 4.000000
E 35 61 2.000000
E 35 91 1.000000
E 35 96 4.000000
E 36 188 2.000000
E 36 101 4.000000
E 36 114 4.000000
E 36 139 1.000000
E 36 56 2.000000
E 36 47 2.000000
E 36 54 1.000000
E 36 183 2.000000
E 36 154 2.000000
E 36 156 1.000000
E 37 194 4.000000
E 37 177 4.000000
E 37 196 2.000000
E 37 180 1.000000
E 37 178 2.000000
E 37 170 2.000000
E 37 184 4.000000
E 37 109 1.000000
E 37 115 1.000000
E 37 82 2.000000
E 37 83 1.000000
E 37 116 4.000000
E 37 182 1.000000
E 37 119 2.000000
E 37 88 4.000000
E 37 93 1.000000
E 38 193 1.000000
E 38 131 4.000000
E 38 199 1.000000
E 38 167 4.000000
E 38 92 1.000000
E 38 61 2.000000
E 39 100 1.000000
E 39 131 1.000000
E 39 67 1.000000
E 39 155 4.000000
E 39 174 2.000000
E 39 116 2.000000
E 39 151 2.000000
E 39 152 4.000000
E 39 91 1.000000
E 39 62 1.000000
E 40 66 1.000000
E 40 44 2.000000
E 40 134 4.000000
E 40 166 1.000000
E 40 76 2.000000
E 40 142 4.000000
E 40 177 2.000000
E 40 84 4.000000
E 40 53 2.000000
E 40 183 2.000000
E 40 180 4.000000
E 40 192 4.000000
E 40 62 2.000000
E 40 64 1.000000
E 41 65 1.000000
E 41 161 2.000000
E 41 67 4.000000
E 41 181 2.000000
E 41 71 4.000000
E 41 137 2.000000
E 41 108 1.000000
E 41 109 2.000000
E 41 143 2.000000
E 41 179 1.000000
E 41 53 1.000000
E 41 118 4.000000
E 41 74 2.000000
E 41 57 4.000000
E 41 133 1.000000
E 42 129 4.000000
E 42 81 1.000000
E 42 84 2.000000
E 42 131 2.000000
E 42 170 2.000000
E 42 110 4.000000
E 42 79 1.000000
E 42 49 4.000000
E 42 83 4.000000
E 42 52 2.000000
E 42 149 4.000000
E 42 47 2.000000
E 42 112 4.000000
E 42 159 2.000000
E 42 182 4.000000
E 43 97 4.000000
E 43 67 2.000000
E 43 124 4.000000
E 43 136 4.000000
E 43 105 1.000000
E 43 106 2.000000
E 43 139 1.000000
E 43 178 2.000000
E 43 50 4.000000
E 43 137 1.000000
E 44 67 2.000000
E 44 100 1.000000
E 44 102 2.000000
E 44 135 1.000000
E 44 72 4.000000
E 44 169 4.000000
E 44 176 2.000000
E 44 126 4.000000
E 44 158 4.000000
E 44 83 4.000000
E 44 108 4.000000
E 44 58 2.000000
E 44 92 4.000000
E 44 94 4.000000
E 45 100 2.000000
E 45 71 4.000000
E 45 194 1.000000
E 45 74 4.000000
E 45 63 2.000000
E 45 113 2.000000
E 45 51 2.000000
E 45 116 4.000000
E 45 149 4.000000
E 45 54 4.000000
E 45 119 4.000000
E 45 120 4.000000
E 45 154 1.000000
E 45 122 4.000000
E 45 152 4.000000
E 46 108 2.000000
E 46 83 4.000000
E 46 198 1.000000
E 46 105 4.000000
E 46 76 1.000000
E 46 111 2.000000
E 46 80 2.000000
E 46 152 2.000000
E 46 153 2.000000
E 46 156 1.000000
E 46 189 1.000000
E 46 63 4.000000
E 47 197 1.000000
E 47 70 1.000000
E 47 71 4.000000
E 47 177 4.000000
E 47 48 2.000000
E 47 81 4.000000
E 47 178 2.000000
E 47 196 4.000000
E 47 149 2.000000
E 47 150 4.000000
E 47 74 4.000000
E 47 122 4.000000
E 47 60 4.000000
E 47 126 4.000000
E 47 127 2.000000
E 47 64 1.000000
E 48 194 2.000000
E 48 99 2.000000
E 48 69 1.000000
E 48 106 2.000000
E 48 197 2.000000
E 48 79 2.000000
E 48 115 1.000000
E 48 53 1.000000
E 48 85 2.000000
E 48 62 1.000000
E 49 194 1.000000
E 49 71 4.000000
E 49 176 1.000000
E 49 84 4.000000
E 49 85 4.000000
E 49 90 4.000000
E 49 155 2.000000
E 49 60 1.000000
E 49 189 2.000000
E 49 158 4.000000
E 49 95 2.000000
E 50 65 2.000000
E 50 66 4.000000
E 50 133 2.000000
E 50 113 2.000000
E 50 119 2.000000
E 50 120 2.000000
E 50 58 2.000000
E 50 93 1.000000
E 50 127 1.000000
E 50 160 4.000000
E 51 150 1.000000
E 51 157 2.000000
E 51 161 4.000000
E 51 185 1.000000
E 51 188 1.000000
E 51 70 2.000000
E 51 85 2.000000
E 51 86 2.000000
E 51 89 1.000000
E 51 98 1.000000
E 51 99 2.000000
E 51 106 1.000000
E 51 119 1.000000
E 51 124 4.000000
E 51 125 4.000000
E 52 65 2.000000
E 52 66 4.000000
E 52 133 1.000000
E 52 166 4.000000
E 52 136 4.000000
E 52 105 4.000000
E 52 174 1.000000
E 52 181 4.000000
E 52 152 1.000000
E 52 161 2.000000
E 52 165 2.000000
E 52 184 1.000000
E 53 132 1.000000
E 53 138 4.000000
E 53 179 4.000000
E 53 190 1.000000
E 53 64 4.000000
E 53 195 1.000000
E 53 68 2.000000
E 53 197 4.000000
E 53 71 4.000000
E 53 84 2.000000
E 53 95 4.000000
E 53 101 1.000000
E 53 103 4.000000
E 53 104 4.000000
E 53 112 2.000000
E 53 115 1.000000
E 53 116 4.000000
E 53 118 1.000000
E 53 121 2.000000
E 53 126 2.000000
E 54 133 2.000000
E 54 134 2.000000
E 54 135 1.000000
E 54 73 2.000000
E 54 113 2.000000
E 54 82 4.000000
E 54 181 2.000000
E 54 87 4.000000
E 54 153 2.000000
E 54 190 4.000000
E 54 198 2.000000
E 55 97 2.000000
E 55 129 1.000000
E 55 68 4.000000
E 55 168 4.000000
E 55 61 2.000000
E 55 139 1.000000
E 55 143 1.000000
E 55 177 2.000000
E 55 179 1.000000
E 55 183 4.000000
E 55 170 2.000000
E 55 93 1.000000
E 55 191 4.000000
E 56 193 1.000000
E 56 167 4.000000
E 56 66 1.000000
E 56 98 2.000000
E 56 107 2.000000
E 56 109 2.000000
E 56 142 1.000000
E 56 113 4.000000
E 56 178 2.000000
E 56 152 4.000000
E 56 199 1.000000
E 56 139 1.000000
E 56 128 4.000000
E 57 129 1.000000
E 57 98 1.000000
E 57 198 4.000000
E 57 166 2.000000
E 57 104 1.000000
E 57 108 2.000000
E 57 173 2.000000
E 57 73 4.000000
E 57 156 2.000000
E 57 61 1.000000
E 57 127 2.000000
E 57 160 4.000000
E 58 129 4.000000
E 58 161 1.000000
E 58 133 2.000000
E 58 196 1.000000
E 58 199 4.000000
E 58 135 1.000000
E 58 200 2.000000
E 58 137 4.000000
E 58 79 2.000000
E 58 110 4.000000
E 58 112 2.000000
E 58 113 2.000000
E 58 142 4.000000
E 58 69 1.000000
E 58 59 4.000000
E 58 174 4.000000
E 59 100 1.000000
E 59 164 4.000000
E 59 169 1.000000
E 59 75 1.000000
E 59 115 2.000000
E 59 153 4.000000
E 59 148 2.000000
E 59 149 2.000000
E 59 150 1.000000
E 59 90 2.000000
E 59 89 2.000000
E 59 112 4.000000
E 59 189 4.000000
E 59 62 1.000000
E 59 166 1.000000
E 60 84 1.000000
E 60 116 1.000000
E 60 133 4.000000
E 60 71 2.000000
E 60 73 4.000000
E 60 112 4.000000
E 60 85 2.000000
E 60 87 1.000000
E 60 152 1.000000
E 60 128 2.000000
E 60 103 2.000000
E 60 70 1.000000
E 61 161 4.000000
E 61 100 1.000000
E 61 155 1.000000
E 61 114 2.000000
E 61 148 2.000000
E 61 94 4.000000
E 62 164 2.000000
E 62 136 4.000000
E 62 88 2.000000
E 62 189 1.000000
E 62 95 4.000000
E 63 70 2.000000
E 63 103 4.000000
E 63 200 1.000000
E 63 125 4.000000
E 63 143 2.000000
E 63 124 1.000000
E 63 93 1.000000
E 63 94 2.000000
E 63 191 2.000000
E 63 64 1.000000
E 64 162 4.000000
E 64 140 2.000000
E 64 137 4.000000
E 64 76 2.000000
E 64 145 4.000000
E 64 146 1.000000
E 64 79 1.000000
E 64 88 1.000000
E 65 81 2.000000
E 65 70 1.000000
E 65 138 4.000000
E 65 104 1.000000
E 65 142 4.000000
E 65 146 1.000000
E 65 85 4.000000
E 65 119 2.000000
E 65 184 2.000000
E 66 195 2.000000
E 66 147 2.000000
E 66 152 1.000000
E 66 166 1.000000
E 66 171 2.000000
E 66 175 2.000000
E 66 67 1.000000
E 66 68 1.000000
E 66 78 1.000000
E 66 80 4.000000
E 66 98 4.000000
E 66 102 4.000000
E 66 112 4.000000
E 66 122 1.000000
E 67 162 1.000000
E 67 106 4.000000
E 67 84 2.000000
E 67 85 1.000000
E 67 152 1.000000
E 67 149 4.000000
E 67 128 1.000000
E 68 161 2.000000
E 68 164 1.000000
E 68 197 2.000000
E 68 135 4.000000
E 68 136 4.000000
E 68 78 4.000000
E 68 113 1.000000
E 68 89 4.000000
E 68 192 4.000000
E 69 97 1.000000
E 69 164 2.000000
E 69 133 4.000000
E 69 71 1.000000
E 69 194 1.000000
E 69 73 2.000000
E 69 171 2.000000
E 69 79 2.000000
E 69 148 4.000000
E 69 94 2.000000
E 70 192 2.000000
E 70 195 2.000000
E 70 73 4.000000
E 70 95 2.000000
E 70 108 4.000000
E 70 77 4.000000
E 70 174 4.000000
E 70 119 4.000000
E 70 185 4.000000
E 70 186 1.000000
E 70 155 4.000000
E 70 189 2.000000
E 70 128 2.000000
E 71 129 2.000000
E 71 134 2.000000
E 71 164 4.000000
E 71 167 2.000000
E 71 195 4.000000
E 71 196 2.000000
E 71 198 1.000000
E 71 200 2.000000
E 71 82 4.000000
E 71 92 1.000000
E 71 102 2.000000
E 72 130 2.000000
E 72 99 1.000000
E 72 197 1.000000
E 72 167 2.000000
E 72 73 4.000000
E 72 139 1.000000
E 72 171 4.000000
E 73 100 2.000000
E 73 74 1.000000
E 73 200 1.000000
E 73 77 4.000000
E 73 191 4.000000
E 73 156 4.000000
E 73 88 1.000000
E 73 101 2.000000
E 74 131 1.000000
E 74 114 1.000000
E 74 82 1.000000
E 74 146 4.000000
E 74 144 4.000000
E 74 145 1.000000
E 74 127 4.000000
E 74 169 2.000000
E 75 163 4.000000
E 75 132 1.000000
E 75 199 4.000000
E 75 168 2.000000
E 75 157 1.000000
E 75 107 4.000000
E 75 112 4.000000
E 75 81 2.000000
E 75 88 1.000000
E 75 188 1.000000
E 75 125 2.000000
E 76 164 1.000000
E 76 180 1.000000
E 76 106 2.000000
E 76 114 1.000000
E 76 84 2.000000
E 76 182 1.000000
E 76 122 1.000000
E 76 90 2.000000
E 77 144 2.000000
E 77 186 2.000000
E 77 91 1.000000
E 77 124 4.000000
E 78 131 4.000000
E 78 132 2.000000
E 78 137 4.000000
E 78 170 4.000000
E 78 142 1.000000
E 78 144 4.000000
E 78 146 2.000000
E 78 150 2.000000
E 78 88 2.000000
E 78 92 4.000000
E 78 94 2.000000
E 79 130 4.000000
E 79 154 1.000000
E 79 171 1.000000
E 79 190 2.000000
E 79 92 4.000000
E 79 96 1.000000
E 79 98 4.000000
E 79 100 1.000000
E 79 108 1.000000
E 79 113 4.000000
E 79 116 1.000000
E 79 119 2.000000
E 80 196 2.000000
E 80 87 4.000000
E 80 194 4.000000
E 80 137 1.000000
E 80 139 1.000000
E 80 108 1.000000
E 80 169 4.000000
E 80 185 4.000000
E 80 125 2.000000
E 80 187 1.000000
E 80 160 2.000000
E 81 198 2.000000
E 81 135 1.000000
E 81 105 2.000000
E 81 109 4.000000
E 81 174 4.000000
E 81 84 4.000000
E 81 143 1.000000
E 81 170 2.000000
E 81 193 4.000000
E 82 130 1.000000
E 82 166 1.000000
E 82 135 1.000000
E 82 169 2.000000
E 82 142 2.000000
E 82 125 4.000000
E 82 188 4.000000
E 82 156 2.000000
E 82 101 4.000000
E 82 155 1.000000
E 82 118 1.000000
E 83 194 2.000000
E 83 163 2.000000
E 83 105 2.000000
E 83 171 4.000000
E 83 150 1.000000
E 84 132 4.000000
E 84 164 4.000000
E 84 117 1.000000
E 84 191 2.000000
E 85 135 1.000000
E 85 144 4.000000
E 85 153 2.000000
E 85 176 1.000000
E 85 161 4.000000
E 85 163 2.000000
E 85 179 1.000000
E 85 182 2.000000
E 85 183 1.000000
E 85 194 1.000000
E 85 87 2.000000
E 85 88 2.000000
E 85 94 1.000000
E 85 102 4.000000
E 85 111 4.000000
E 85 122 2.000000
E 86 164 2.000000
E 86 104 2.000000
E 86 173 4.000000
E 86 114 4.000000
E 86 90 4.000000
E 86 95 2.000000
E 86 192 2.000000
E 87 198 1.000000
E 87 171 4.000000
E 87 142 2.000000
E 87 114 4.000000
E 87 124 2.000000
E 87 92 2.000000
E 87 155 1.000000
E 87 191 2.000000
E 87 128 4.000000
E 88 163 1.000000
E 88 195 1.000000
E 88 126 2.000000
E 88 112 1.000000
E 88 96 4.000000
E 88 118 1.000000
E 88 153 4.000000
E 88 122 4.000000
E 88 93 1.000000
E 89 98 2.000000
E 89 101 2.000000
E 89 134 4.000000
E 89 135 4.000000
E 89 115 2.000000
E 89 178 4.000000
E 90 193 4.000000
E 90 131 1.000000
E 90 106 1.000000
E 90 142 2.000000
E 90 114 4.000000
E 90 121 4.000000
E 90 92 4.000000
E 90 160 1.000000
E 91 141 1.000000
E 91 163 1.000000
E 91 181 2.000000
E 91 118 4.000000
E 91 191 1.000000
E 92 129 2.000000
E 92 142 2.000000
E 92 147 2.000000
E 92 149 1.000000
E 92 186 2.000000
E 92 126 1.000000
E 93 129 1.000000
E 93 131 2.000000
E 93 163 1.000000
E 93 174 2.000000
E 93 117 2.000000
E 93 98 2.000000
E 93 149 1.000000
E 93 187 4.000000
E 93 176 2.000000
E 94 198 4.000000
E 94 105 1.000000
E 94 121 2.000000
E 94 101 1.000000
E 95 129 4.000000
E 95 135 1.000000
E 95 130 4.000000
E 95 137 4.000000
E 95 160 2.000000
E 95 161 1.000000
E 95 162 4.000000
E 95 170 4.000000
E 95 172 4.000000
E 95 188 4.000000
E 95 192 4.000000
E 95 196 2.000000
E 95 200 2.000000
E 95 177 4.000000
E 95 102 1.000000
E 96 102 1.000000
E 96 163 1.000000
E 96 139 1.000000
E 96 110 4.000000
E 96 149 1.000000
E 96 123 1.000000
E 96 158 1.000000
E 96 192 2.000000
E 97 162 4.000000
E 97 164 2.000000
E 97 183 4.000000
E 97 167 4.000000
E 97 109 4.000000
E 97 185 2.000000
E 97 196 2.000000
E 97 181 2.000000
E 97 157 4.000000
E 97 160 4.000000
E 98 150 1.000000
E 98 152 2.000000
E 98 161 4.000000
E 98 166 2.000000
E 98 172 4.000000
E 98 174 4.000000
E 98 181 4.000000
E 98 190 4.000000
E 98 144 2.000000
E 98 109 2.000000
E 98 113 4.000000
E 98 115 2.000000
E 98 121 2.000000
E 98 124 1.000000
E 98 128 2.000000
E 99 129 2.000000
E 99 165 1.000000
E 99 198 2.000000
E 99 142 1.000000
E 99 189 4.000000
E 99 191 1.000000
E 99 127 4.000000
E 100 182 1.000000
E 100 101 4.000000
E 100 136 4.000000
E 100 157 2.000000
E 100 121 1.000000
E 100 168 1.000000
E 100 118 2.000000
E 100 128 2.000000
E 100 126 1.000000
E 100 200 4.000000
E 101 132 2.000000
E 101 164 1.000000
E 101 171 2.000000
E 101 176 1.000000
E 101 122 4.000000
E 102 131 2.000000
E 102 164 1.000000
E 102 136 2.000000
E 102 195 2.000000
E 102 116 1.000000
E 102 183 2.000000
E 102 106 1.000000
E 103 194 1.000000
E 103 163 1.000000
E 103 124 4.000000
E 103 141 1.000000
E 103 140 2.000000
E 103 175 4.000000
E 103 146 4.000000
E 103 180 2.000000
E 103 121 4.000000
E 104 194 2.000000
E 104 177 2.000000
E 104 178 1.000000
E 104 147 4.000000
E 104 123 4.000000
E 104 192 1.000000
E 105 165 2.000000
E 105 183 1.000000
E 105 199 4.000000
E 105 184 1.000000
E 105 139 1.000000
E 105 106 2.000000
E 105 123 1.000000
E 105 156 2.000000
E 106 130 1.000000
E 106 132 4.000000
E 106 133 1.000000
E 106 144 1.000000
E 106 147 2.000000
E 106 172 4.000000
E 106 178 4.000000
E 106 199 4.000000
E 106 108 1.000000
E 106 109 2.000000
E 107 145 2.000000
E 107 196 1.000000
E 107 199 2.000000
E 107 142 4.000000
E 107 115 1.000000
E 107 118 2.000000
E 107 188 1.000000
E 107 125 1.000000
E 107 160 4.000000
E 108 161 4.000000
E 108 165 1.000000
E 108 141 1.000000
E 108 115 2.000000
E 108 122 2.000000
E 108 155 2.000000
E 108 134 2.000000
E 109 136 2.000000
E 109 145 1.000000
E 109 150 4.000000
E 109 154 4.000000
E 109 157 4.000000
E 109 163 4.000000
E 109 175 4.000000
E 109 189 4.000000
E 109 195 2.000000
E 109 114 1.000000
E 109 116 1.000000
E 109 118 2.000000
E 109 119 2.000000
E 110 129 4.000000
E 110 132 1.000000
E 110 133 2.000000
E 110 200 1.000000
E 110 143 1.000000
E 110 145 2.000000
E 110 186 4.000000
E 110 191 4.000000
E 111 200 4.000000
E 111 141 2.000000
E 111 160 2.000000
E 112 134 4.000000
E 112 135 4.000000
E 112 152 1.000000
E 112 198 4.000000
E 112 167 4.000000
E 113 193 4.000000
E 113 183 2.000000
E 113 130 2.000000
E 113 138 1.000000
E 113 172 1.000000
E 113 120 1.000000
E 113 119 1.000000
E 113 191 1.000000
E 114 166 4.000000
E 114 178 2.000000
E 114 142 1.000000
E 114 177 4.000000
E 114 173 1.000000
E 114 186 2.000000
E 114 155 2.000000
E 114 156 1.000000
E 115 193 4.000000
E 115 172 2.000000
E 115 168 2.000000
E 115 169 4.000000
E 115 194 2.000000
E 115 151 4.000000
E 115 197 4.000000
E 115 139 2.000000
E 116 173 1.000000
E 116 169 4.000000
E 116 142 2.000000
E 116 179 2.000000
E 116 148 2.000000
E 116 153 1.000000
E 117 196 2.000000
E 117 198 1.000000
E 117 171 2.000000
E 117 149 1.000000
E 117 119 1.000000
E 117 185 4.000000
E 118 129 1.000000
E 118 186 1.000000
E 118 200 1.000000
E 118 193 4.000000
E 118 183 4.000000
E 118 121 4.000000
E 118 181 2.000000
E 118 123 2.000000
E 118 159 2.000000
E 118 160 4.000000
E 119 193 4.000000
E 119 134 4.000000
E 119 135 1.000000
E 119 136 2.000000
E 119 145 4.000000
E 119 156 1.000000
E 119 176 2.000000
E 119 191 1.000000
E 119 197 4.000000
E 119 123 2.000000
E 120 167 1.000000
E 120 141 4.000000
E 120 195 4.000000
E 120 173 2.000000
E 120 154 4.000000
E 120 192 2.000000
E 121 137 2.000000
E 121 170 2.000000
E 121 144 4.000000
E 121 167 4.000000
E 122 132 2.000000
E 122 168 2.000000
E 122 129 2.000000
E 122 161 4.000000
E 122 184 4.000000
E 122 127 2.000000
E 123 156 2.000000
E 123 199 4.000000
E 123 171 2.000000
E 123 174 1.000000
E 123 177 1.000000
E 123 186 4.000000
E 123 154 4.000000
E 123 158 1.000000
E 124 172 4.000000
E 124 168 1.000000
E 124 143 1.000000
E 124 177 2.000000
E 124 150 4.000000
E 125 146 2.000000
E 125 175 2.000000
E 125 152 2.000000
E 125 153 1.000000
E 126 171 2.000000
E 126 179 1.000000
E 126 172 1.000000
E 126 128 1.000000
E 127 199 4.000000
E 127 172 1.000000
E 127 189 4.000000
E 127 157 2.000000
E 127 192 2.000000
E 128 137 4.000000
E 128 171 1.000000
E 128 136 2.000000
E 128 190 2.000000
E 128 156 4.000000
E 128 157 4.000000
E 128 134 2.000000
E 129 132 1.000000
E 129 144 1.000000
E 129 156 2.000000
E 129 159 4.000000
E 129 172 1.000000
E 129 177 4.000000
E 129 198 2.000000
E 130 143 1.000000
E 130 167 1.000000
E 130 146 2.000000
E 130 179 1.000000
E 131 162 4.000000
E 131 172 1.000000
E 131 143 4.000000
E 131 178 2.000000
E 132 133 4.000000
E 132 165 2.000000
E 132 181 2.000000
E 132 179 4.000000
E 132 148 2.000000
E 132 157 2.000000
E 132 159 2.000000
E 133 161 4.000000
E 133 194 1.000000
E 133 149 1.000000
E 133 183 4.000000
E 133 152 2.000000
E 133 154 2.000000
E 133 187 2.000000
E 134 150 4.000000
E 134 195 1.000000
E 134 164 1.000000
E 134 185 4.000000
E 135 161 1.000000
E 135 178 4.000000
E 135 164 1.000000
E 135 155 1.000000
E 136 177 1.000000
E 136 168 4.000000
E 136 181 2.000000
E 137 162 4.000000
E 137 156 4.000000
E 137 142 4.000000
E 137 182 2.000000
E 137 171 2.000000
E 138 162 2.000000
E 138 169 2.000000
E 138 173 1.000000
E 138 144 1.000000
E 138 178 2.000000
E 138 184 1.000000
E 138 181 2.000000
E 138 176 1.000000
E 139 197 4.000000
E 139 200 1.000000
E 139 175 4.000000
E 139 179 4.000000
E 139 143 4.000000
E 139 191 4.000000
E 140 170 2.000000
E 140 172 1.000000
E 140 185 1.000000
E 140 160 2.000000
E 141 193 4.000000
E 141 200 2.000000
E 141 179 2.000000
E 141 144 4.000000
E 142 161 4.000000
E 143 193 2.000000
E 143 184 4.000000
E 143 159 2.000000
E 144 163 4.000000
E 144 147 1.000000
E 144 183 4.000000
E 145 163 1.000000
E 145 151 4.000000
E 145 181 4.000000
E 145 183 4.000000
E 146 200 4.000000
E 146 179 1.000000
E 146 183 1.000000
E 146 152 2.000000
E 147 199 1.000000
E 147 200 4.000000
E 147 151 1.000000
E 147 152 2.000000
E 147 187 1.000000
E 148 163 2.000000
E 148 195 4.000000
E 149 200 1.000000
E 149 192 2.000000
E 149 190 1.000000
E 150 170 2.000000
E 150 194 2.000000
E 150 164 1.000000
E 150 189 4.000000
E 150 182 1.000000
E 151 169 1.000000
E 151 170 4.000000
E 151 184 1.000000
E 151 157 2.000000
E 151 158 4.000000
E 152 180 1.000000
E 152 177 4.000000
E 152 155 1.000000
E 152 190 2.000000
E 153 198 2.000000
E 153 164 4.000000
E 153 197 4.000000
E 153 180 2.000000
E 153 196 1.000000
E 153 170 4.000000
E 153 184 4.000000
E 153 176 4.000000
E 153 192 4.000000
E 153 182 4.000000
E 154 184 1.000000
E 154 176 4.000000
E 154 189 2.000000
E 154 186 2.000000
E 154 157 2.000000
E 154 158 4.000000
E 154 191 4.000000
E 155 194 1.000000
E 155 182 4.000000
E 155 186 2.000000
E 156 198 1.000000
E 156 167 2.000000
E 156 172 2.000000
E 156 180 2.000000
E 156 159 2.000000
E 157 196 4.000000
E 157 193 1.000000
E 157 190 2.000000
E 157 177 2.000000
E 157 187 1.000000
E 157 171 2.000000
E 158 179 2.000000
E 158 187 4.000000
E 159 195 2.000000
E 159 162 1.000000
E 159 196 1.000000
E 159 176 4.000000
E 159 175 4.000000
E 159 178 1.000000
E 159 164 2.000000
E 159 183 4.000000
E 159 185 2.000000
E 159 197 4.000000
E 159 187 4.000000
E 160 191 2.000000
E 161 168 4.000000
E 161 174 1.000000
E 161 182 1.000000
E 162 197 1.000000
E 162 200 1.000000
E 162 184 2.000000
E 162 191 4.000000
E 162 189 4.000000
E 163 194 2.000000
E 163 180 4.000000
E 163 177 4.000000
E 163 190 2.000000
E 164 197 1.000000
E 164 168 2.000000
E 164 174 4.000000
E 165 180 1.000000
E 165 175 1.000000
E 165 184 1.000000
E 166 199 2.000000
E 166 178 1.000000
E 167 195 1.000000
E 167 194 1.000000
E 167 196 4.000000
E 168 196 1.000000
E 168 170 2.000000
E 169 198 1.000000
E 170 172 1.000000
E 170 195 1.000000
E 171 196 2.000000
E 171 183 4.000000
E 171 173 1.000000
E 171 188 2.000000
E 172 193 2.000000
E 172 182 2.000000
E 173 196 2.000000
E 173 178 4.000000
E 173 175 1.000000
E 174 177 2.000000
E 176 181 2.000000
E 176 183 4.000000
E 176 199 1.000000
E 176 180 1.000000
E 177 182 4.000000
E 177 184 2.000000
E 177 185 2.000000
E 178 180 2.000000
E 180 199 4.000000
E 180 186 2.000000
E 181 184 4.000000
E 182 195 2.000000
E 182 189 4.000000
E 183 187 1.000000
E 183 192 2.000000
E 184 199 2.000000
E 184 193 2.000000
E 185 192 1.000000
E 186 189 4.000000
E 187 193 1.000000
E 187 194 1.000000
E 187 200 4.000000
E 189 193 2.000000
E 192 193 4.000000
E 193 195 2.000000
E 193 196 4.000000
E 197 198 1.000000
END

SECTION Terminals
Terminals 200
TP 1 1.837282
TP 2 1.938303
TP 3 1.314772
TP 4 0.396059
TP 5 1.924456
TP 6 0.538515
TP 7 1.147170
TP 8 0.941770
TP 9 1.910862
TP 10 1.260815
TP 11 1.614751
TP 12 0.820538
TP 13 0.529284
TP 14 0.668870
TP 15 1.152563
TP 16 1.527362
TP 17 1.505926
TP 18 1.743858
TP 19 1.151464
TP 20 1.106970
TP 21 0.853468
TP 22 0.589200
TP 23 1.492227
TP 24 0.159535
TP 25 1.293235
TP 26 0.344977
TP 27 0.099720
TP 28 1.018279
TP 29 1.462800
TP 30 1.018547
TP 31 1.806351
TP 32 1.651991
TP 33 1.432101
TP 34 1.434504
TP 35 1.654669
TP 36 0.716596
TP 37 1.571972
TP 38 0.053756
TP 39 1.990356
TP 40 0.348286
TP 41 0.811564
TP 42 0.727948
TP 43 0.588367
TP 44 0.181986
TP 45 1.878210
TP 46 1.878726
TP 47 1.854719
TP 48 1.222309
TP 49 0.337557
TP 50 1.267311
TP 51 1.805122
TP 52 0.663969
TP 53 0.165329
TP 54 1.384129
TP 55 1.568095
TP 56 0.843309
TP 57 1.138596
TP 58 1.384454
TP 59 1.046317
TP 60 1.767725
TP 61 0.522353
TP 62 0.372044
TP 63 1.454249
TP 64 1.787439
TP 65 1.920675
TP 66 0.277642
TP 67 0.744425
TP 68 0.460748
TP 69 1.095687
TP 70 0.554794
TP 71 1.395458
TP 72 0.953537
TP 73 1.513782
TP 74 1.270768
TP 75 1.861303
TP 76 0.687749
TP 77 1.438311
TP 78 1.142247
TP 79 0.982981
TP 80 0.549594
TP 81 0.769083
TP 82 1.616368
TP 83 1.350391
TP 84 1.334199
TP 85 1.313505
TP 86 0.803081
TP 87 1.572600
TP 88 1.472880
TP 89 1.741906
TP 90 1.566459
TP 91 1.168742
TP 92 1.492486
TP 93 0.151751
TP 94 1.899812
TP 95 0.767127
TP 96 0.337701
TP 97 0.102018
TP 98 1.347421
TP 99 0.406945
TP 100 1.478654
TP 101 0.656003
TP 102 0.795545
TP 103 0.723948
TP 104 1.537223
TP 105 1.996848
TP 106 1.830960
TP 107 0.148752
TP 108 0.237502
TP 109 1.162550
TP 110 1.654934
TP 111 1.644903
TP 112 1.308737
TP 113 1.704945
TP 114 1.188428
TP 115 1.014720
TP 116 0.039576
TP 117 1.651441
TP 118 0.370934
TP 119 0.669748
TP 120 1.159736
TP 121 0.583671
TP 122 1.901675
TP 123 1.975629
TP 124 0.210774
TP 125 1.644907
TP 126 0.723842
TP 127 0.715371
TP 128 0.730127
TP 129 1.764611
TP 130 0.524210
TP 131 1.802251
TP 132 1.424477
TP 133 0.432105
TP 134 0.028599
TP 135 1.294374
TP 136 1.180153
TP 137 0.345727
TP 138 0.209093
TP 139 1.907604
TP 140 0.896044
TP 141 1.538370
TP 142 0.039156
TP 143 0.538562
TP 144 0.863749
TP 145 0.718041
TP 146 1.230251
TP 147 1.881000
TP 148 1.033134
TP 149 1.847012
TP 150 1.096952
TP 151 1.568889
TP 152 0.425187
TP 153 0.832048
TP 154 1.109426
TP 155 0.147085
TP 156 1.575566
TP 157 0.410690
TP 158 1.924793
TP 159 0.304306
TP 160 1.120379
TP 161 1.880345
TP 162 1.162580
TP 163 0.931455
TP 164 1.625172
TP 165 0.936034
TP 166 1.099067
TP 167 1.635705
TP 168 0.280305
TP 169 0.444927
TP 170 0.038134
TP 171 1.271838
TP 172 1.655021
TP 173 1.225632
TP 174 1.043716
TP 175 1.434515
TP 176 0.001138
TP 177 0.139827
TP 178 0.510855
TP 179 0.487821
TP 180 0.233625
TP 181 1.996957
TP 182 1.327864
TP 183 1.416995
TP 184 1.538704
TP 185 0.037812
TP 186 0.217339
TP 187 0.097017
TP 188 1.866890
TP 189 1.681646
TP 190 1.523495
TP 191 1.046988
TP 192 1.919550
TP 193 1.362650
TP 194 0.102981
TP 195 1.008544
TP 196 0.782680
TP 197 0.443493
TP 198 1.964469
TP 199 0.923218
TP 200 1.539856
END

EOF
